&GLOBAL
   RUN_TYPE BAND            
   PROJECT_NAME neb2        
&END GLOBAL
&MOTION
  &CONSTRAINT             
   &FIXED_ATOMS
    COMPONENTS_TO_FIX Z
    LIST 1..7
   &END
  &END
  &BAND
   NPROC_REP 1             
   BAND_TYPE IT-<Band type>               !<--------------------------- type of BAND you want to use
   NUMBER_OF_REPLICA <number of replica>  !<--------------------------- number of replicas required     
    &OPTIMIZE_BAND         
      OPT_TYPE DIIS
      &DIIS
       MAX_STEPS 1000
       N_DIIS 3
      &END
    &END
    &REPLICA    
     &COORD  ! coordinates of the starting configuration            
        -0.0000000000        0.0000000000       -0.0000000000
         3.8030201671       -0.0000003430       -0.0000000000
        -3.8030201671        0.0000003430        0.0000000000
         1.9019125593        3.2944696295       -0.0000000000
         1.9019119654       -3.2944699726        0.0000000000
        -1.9019119654        3.2944699726        0.0000000000
        -1.9019125593       -3.2944696295        0.0000000000 
     &END
    &END REPLICA
    &REPLICA 
     &COORD         ! coordinates of the intermediate configuration       
        3.8030201671       -0.0000003430       -0.0000000000
        1.9019125593        3.2944696295       -0.0000000000
       -3.8030201671        0.0000003430        0.0000000000
        0 0 0
        1.9019119654       -3.2944699726        0.0000000000
       -1.9019119654        3.2944699726        0.0000000000
       -1.9019125593       -3.2944696295        0.0000000000
      &END
    &END REPLICA
    &REPLICA 
     &COORD       ! coordinates of the ending configuration        
         1.9019125593        3.2944696295       -0.0000000000
         0 0 0
        -3.8030201671        0.0000003430        0.0000000000
         3.8030201671       -0.0000003430       -0.0000000000
         1.9019119654       -3.2944699726        0.0000000000
        -1.9019119654        3.2944699726        0.0000000000
        -1.9019125593       -3.2944696295        0.0000000000 
      &END                                                      
    &END REPLICA
   &END BAND
&END MOTION

&FORCE_EVAL        
  METHOD FIST
  &MM
    &FORCEFIELD
      &SPLINE
      EMAX_SPLINE 10000
      &END
      &NONBONDED
        &LENNARD-JONES
          atoms  Ar Ar
          EPSILON    [K_e]   <>         !<--------------------------- epsilon
          SIGMA [angstrom]   <>         !<--------------------------- Sigma
          RCUT  [angstrom]   <>         !<--------------------------- rcut value
        &END LENNARD-JONES
      &END NONBONDED
      &CHARGE
        ATOM Ar
        CHARGE <>                       !<--------------------------- charge of argon atom
      &END CHARGE
    &END FORCEFIELD
    &POISSON
    PERIODIC <>                        !<--------------------------  which boundary condition is suitable for cluster simulation
      &EWALD
        EWALD_TYPE <>                  !<--------------------------- Ewald summation for computing colomb potential
      &END EWALD
    &END POISSON
  &END MM
  &SUBSYS
    &CELL
    ABC [angstrom] 20 20 20
      PERIODIC <>                     !<--------------------------  which boundary condition is suitable for cluster simulation
   &END CELL
   &COORD      ! repeat starting configuration here again  
Ar        -0.0000000000        0.0000000000       -0.0000000000
Ar         3.8030201671       -0.0000003430       -0.0000000000
Ar        -3.8030201671        0.0000003430        0.0000000000
Ar         1.9019125593        3.2944696295       -0.0000000000
Ar         1.9019119654       -3.2944699726        0.0000000000
Ar        -1.9019119654        3.2944699726        0.0000000000
Ar        -1.9019125593       -3.2944696295        0.0000000000
  &END COORD
  &END SUBSYS
&END FORCE_EVAL
